
Gurobi 6.5.2 (linux64) logging started Mon Dec 12 22:09:08 2016


Gurobi 6.5.2 (linux64) logging started Mon Dec 12 22:09:08 2016

Optimize a model with 21 rows, 24 columns and 65 nonzeros
Coefficient statistics:
  Matrix range    [1e+00, 2e+00]
  Objective range [2e+00, 8e+01]
  Bounds range    [1e+00, 1e+00]
  RHS range       [1e+00, 1e+00]
Presolve removed 18 rows and 16 columns
Presolve time: 0.00s
Presolved: 3 rows, 8 columns, 14 nonzeros
Variable types: 0 continuous, 8 integer (8 binary)
Found heuristic solution: objective 364.0000000

Root relaxation: cutoff, 2 iterations, 0.00 seconds

    Nodes    |    Current Node    |     Objective Bounds      |     Work
 Expl Unexpl |  Obj  Depth IntInf | Incumbent    BestBd   Gap | It/Node Time

     0     0     cutoff    0       364.00000  363.00037  0.27%     -    0s

Explored 0 nodes (2 simplex iterations) in 0.00 seconds
Thread count was 8 (of 8 available processors)

Optimal solution found (tolerance 1.00e-04)
Best objective 3.640000000000e+02, best bound 3.640000000000e+02, gap 0.0%
